Cartesian line mode
5
Line-mode
Cartesian
0.0 0.0 0.0 ! G
3.141592653589793 0.0 0.0 ! X
