Reciprocal line mode
5
Line-mode
Reciprocal
0.0 0.0 0.0 ! G
0.5 0.0 0.0 ! X

0.5 0.0 0.0 ! X
0.5 0.5 0.0 ! M
