Cubic test
1.0
1.0 0.0 0.0
0.0 1.0 0.0
0.0 0.0 1.0
Si
1
Direct
0.0 0.0 0.0
