superham square 2orb test cell
1.0
1.0 0.0 0.0
0.0 1.0 0.0
0.0 0.0 1.0
X
1
Direct
0.0 0.0 0.0
