POSCAR generated from wannier  [RHL,RHL1,hR18] (STD_PRIM doi:10.1016/j.commatsci.2010.05.010)
1.000000
   7.09969679618369  -3.57119970827431   0.00000000000000
   7.09969679618369   3.57119970827431   0.00000000000000
   5.30335707598129   0.00000000000000   5.91891592090635
Cs Cu Sn F 
2 3 1 12 
Direct(18) [A2B3C1D12] 
   0.88967000000000   0.88967000000000   0.88967000000000  Cs    
   0.11033000000000   0.11033000000000   0.11033000000000  Cs    
   0.50000000000000   0.50000000000000   0.00000000000000  Cu    
   0.50000000000000   0.00000000000000   0.50000000000000  Cu    
   0.00000000000000   0.50000000000000   0.50000000000000  Cu    
   0.50000000000000   0.50000000000000   0.50000000000000  Sn    
   0.42583000000000   0.81292000000000   0.81292000000000  F     
   0.57417000000000   0.18708000000000   0.18708000000000  F     
   0.81292000000000   0.81292000000000   0.42583000000000  F     
   0.18708000000000   0.18708000000000   0.57417000000000  F     
   0.81292000000000   0.42583000000000   0.81292000000000  F     
   0.18708000000000   0.57417000000000   0.18708000000000  F     
   0.82547000000000   0.41713000000000   0.41713000000000  F     
   0.17453000000000   0.58287000000000   0.58287000000000  F     
   0.41713000000000   0.41713000000000   0.82547000000000  F     
   0.58287000000000   0.58287000000000   0.17453000000000  F     
   0.41713000000000   0.82547000000000   0.41713000000000  F     
   0.58287000000000   0.17453000000000   0.58287000000000  F
