1T'-MoS2
40
Line-mode
Reciprocal
0.50000 0.00000 0.00000 ! X
0.00000 0.00000 0.00000 ! \Gamma

0.00000 0.00000 0.00000 ! \Gamma
0.50000 0.50000 0.00000 ! R

0.50000 0.50000 0.00000 ! R
0.00000 0.50000 0.00000 ! Y

0.00000 0.50000 0.00000 ! Y
0.00000 0.00000 0.00000 ! \Gamma
