Graphene
40
Line-mode
reciprocal
     0.0000     0.0000     0.0000   ! \Gamma
     0.5000     0.0000     0.0000   ! M
 
     0.5000     0.0000     0.0000   ! M
     0.3333     0.3333     0.0000   ! K
 
     0.3333     0.3333     0.0000   ! K
     0.0000     0.0000     0.0000   ! \Gamma
