Graphene input cell for spectrum example
1.000000
   1.22999999986589  -2.13042249307743   0.00000000000000
   1.22999999986589   2.13042249307743   0.00000000000000
   0.00000000000000   0.00000000000000  20.00000000000000
C 
2 
Direct(2) [A2] 
   0.00000000000000   0.00000000000000   0.00000000000000  C     
   0.33333333330000   0.66666666666666   0.00000000000000  C     
