  num_wann  =  30  ! set to NBANDS by VASP
  num_bands =  220
  write_hr          = true
  num_iter          = 200  ! 300000 when MLWF
  num_print_cycles  = 100
  conv_window       = 3
  conv_tol          = 1.0E-7
  dis_num_iter      = 300000 ! 300000 when disentangle.
  dis_conv_window   = 3
  dis_conv_tol      = 1.0E-11
  !restart          = default ! wannierise ! plot ! transport
  dis_win_min    = 0.7347
  dis_win_max    = 12.7347
  dis_froz_max   = 7.2347
  dis_froz_min   = 0.7347

  begin projections
    V:d
   Sb:p
  end projections

begin unit_cell_cart
     2.7474501    -4.7587232     0.0000000
     2.7474501     4.7587232     0.0000000
     0.0000000     0.0000000     9.3085003
end unit_cell_cart

begin atoms_cart
Cs       0.0000000     0.0000000     0.0000000
V        2.7474501     0.0000000     4.6542501
V        1.3737251    -2.3793616     4.6542501
V        1.3737251     2.3793616     4.6542501
Sb       0.0000000     0.0000000     4.6542501
Sb       2.7474502    -1.5862411     6.9082104
Sb       2.7474499     1.5862410     2.4002899
Sb       2.7474499     1.5862410     6.9082104
Sb       2.7474502    -1.5862411     2.4002899
end atoms_cart

mp_grid =    12    12     6

begin kpoints
      0.000000000000      0.000000000000      0.000000000000
      0.083333333333      0.000000000000      0.000000000000
      0.166666666667      0.000000000000      0.000000000000
      0.250000000000      0.000000000000      0.000000000000
      0.333333333333     -0.000000000000      0.000000000000
      0.416666666667      0.000000000000      0.000000000000
      0.500000000000      0.000000000000      0.000000000000
     -0.416666666667     -0.000000000000      0.000000000000
     -0.333333333333      0.000000000000      0.000000000000
     -0.250000000000      0.000000000000      0.000000000000
     -0.166666666667     -0.000000000000      0.000000000000
     -0.083333333333      0.000000000000      0.000000000000
      0.000000000000      0.083333333333      0.000000000000
      0.083333333333      0.083333333333      0.000000000000
      0.166666666667      0.083333333333      0.000000000000
      0.250000000000      0.083333333333      0.000000000000
      0.333333333333      0.083333333333      0.000000000000
      0.416666666667      0.083333333333      0.000000000000
      0.500000000000      0.083333333333      0.000000000000
     -0.416666666667      0.083333333333      0.000000000000
     -0.333333333333      0.083333333333      0.000000000000
     -0.250000000000      0.083333333333      0.000000000000
     -0.166666666667      0.083333333333      0.000000000000
     -0.083333333333      0.083333333333      0.000000000000
      0.000000000000      0.166666666667      0.000000000000
      0.083333333333      0.166666666667      0.000000000000
      0.166666666667      0.166666666667      0.000000000000
      0.250000000000      0.166666666667      0.000000000000
      0.333333333333      0.166666666667      0.000000000000
      0.416666666667      0.166666666667      0.000000000000
      0.500000000000      0.166666666667      0.000000000000
     -0.416666666667      0.166666666667      0.000000000000
     -0.333333333333      0.166666666667      0.000000000000
     -0.250000000000      0.166666666667      0.000000000000
     -0.166666666667      0.166666666667      0.000000000000
     -0.083333333333      0.166666666667      0.000000000000
      0.000000000000      0.250000000000      0.000000000000
      0.083333333333      0.250000000000      0.000000000000
      0.166666666667      0.250000000000      0.000000000000
      0.250000000000      0.250000000000      0.000000000000
      0.333333333333      0.250000000000      0.000000000000
      0.416666666667      0.250000000000      0.000000000000
      0.500000000000      0.250000000000      0.000000000000
     -0.416666666667      0.250000000000      0.000000000000
     -0.333333333333      0.250000000000      0.000000000000
     -0.250000000000      0.250000000000      0.000000000000
     -0.166666666667      0.250000000000      0.000000000000
     -0.083333333333      0.250000000000      0.000000000000
     -0.000000000000      0.333333333333      0.000000000000
      0.083333333333      0.333333333333      0.000000000000
      0.166666666667      0.333333333333      0.000000000000
      0.250000000000      0.333333333333      0.000000000000
      0.333333333333      0.333333333333      0.000000000000
      0.416666666667      0.333333333333      0.000000000000
      0.500000000000      0.333333333333      0.000000000000
     -0.416666666667      0.333333333333      0.000000000000
     -0.333333333333      0.333333333333      0.000000000000
     -0.250000000000      0.333333333333      0.000000000000
     -0.166666666667      0.333333333333      0.000000000000
     -0.083333333333      0.333333333333      0.000000000000
      0.000000000000      0.416666666667      0.000000000000
      0.083333333333      0.416666666667      0.000000000000
      0.166666666667      0.416666666667      0.000000000000
      0.250000000000      0.416666666667      0.000000000000
      0.333333333333      0.416666666667      0.000000000000
      0.416666666667      0.416666666667      0.000000000000
      0.500000000000      0.416666666667      0.000000000000
     -0.416666666667      0.416666666667      0.000000000000
     -0.333333333333      0.416666666667      0.000000000000
     -0.250000000000      0.416666666667      0.000000000000
     -0.166666666667      0.416666666667      0.000000000000
     -0.083333333333      0.416666666667      0.000000000000
      0.000000000000      0.500000000000      0.000000000000
      0.083333333333      0.500000000000      0.000000000000
      0.166666666667      0.500000000000      0.000000000000
      0.250000000000      0.500000000000      0.000000000000
      0.333333333333      0.500000000000      0.000000000000
      0.416666666667      0.500000000000      0.000000000000
      0.500000000000      0.500000000000      0.000000000000
     -0.416666666667      0.500000000000      0.000000000000
     -0.333333333333      0.500000000000      0.000000000000
     -0.250000000000      0.500000000000      0.000000000000
     -0.166666666667      0.500000000000      0.000000000000
     -0.083333333333      0.500000000000      0.000000000000
     -0.000000000000     -0.416666666667      0.000000000000
      0.083333333333     -0.416666666667      0.000000000000
      0.166666666667     -0.416666666667      0.000000000000
      0.250000000000     -0.416666666667      0.000000000000
      0.333333333333     -0.416666666667      0.000000000000
      0.416666666667     -0.416666666667      0.000000000000
      0.500000000000     -0.416666666667      0.000000000000
     -0.416666666667     -0.416666666667      0.000000000000
     -0.333333333333     -0.416666666667      0.000000000000
     -0.250000000000     -0.416666666667      0.000000000000
     -0.166666666667     -0.416666666667      0.000000000000
     -0.083333333333     -0.416666666667      0.000000000000
      0.000000000000     -0.333333333333      0.000000000000
      0.083333333333     -0.333333333333      0.000000000000
      0.166666666667     -0.333333333333      0.000000000000
      0.250000000000     -0.333333333333      0.000000000000
      0.333333333333     -0.333333333333      0.000000000000
      0.416666666667     -0.333333333333      0.000000000000
      0.500000000000     -0.333333333333      0.000000000000
     -0.416666666667     -0.333333333333      0.000000000000
     -0.333333333333     -0.333333333333      0.000000000000
     -0.250000000000     -0.333333333333      0.000000000000
     -0.166666666667     -0.333333333333      0.000000000000
     -0.083333333333     -0.333333333333      0.000000000000
      0.000000000000     -0.250000000000      0.000000000000
      0.083333333333     -0.250000000000      0.000000000000
      0.166666666667     -0.250000000000      0.000000000000
      0.250000000000     -0.250000000000      0.000000000000
      0.333333333333     -0.250000000000      0.000000000000
      0.416666666667     -0.250000000000      0.000000000000
      0.500000000000     -0.250000000000      0.000000000000
     -0.416666666667     -0.250000000000      0.000000000000
     -0.333333333333     -0.250000000000      0.000000000000
     -0.250000000000     -0.250000000000      0.000000000000
     -0.166666666667     -0.250000000000      0.000000000000
     -0.083333333333     -0.250000000000      0.000000000000
     -0.000000000000     -0.166666666667      0.000000000000
      0.083333333333     -0.166666666667      0.000000000000
      0.166666666667     -0.166666666667      0.000000000000
      0.250000000000     -0.166666666667      0.000000000000
      0.333333333333     -0.166666666667      0.000000000000
      0.416666666667     -0.166666666667      0.000000000000
      0.500000000000     -0.166666666667      0.000000000000
     -0.416666666667     -0.166666666667      0.000000000000
     -0.333333333333     -0.166666666667      0.000000000000
     -0.250000000000     -0.166666666667      0.000000000000
     -0.166666666667     -0.166666666667      0.000000000000
     -0.083333333333     -0.166666666667      0.000000000000
      0.000000000000     -0.083333333333      0.000000000000
      0.083333333333     -0.083333333333      0.000000000000
      0.166666666667     -0.083333333333      0.000000000000
      0.250000000000     -0.083333333333      0.000000000000
      0.333333333333     -0.083333333333      0.000000000000
      0.416666666667     -0.083333333333      0.000000000000
      0.500000000000     -0.083333333333      0.000000000000
     -0.416666666667     -0.083333333333      0.000000000000
     -0.333333333333     -0.083333333333      0.000000000000
     -0.250000000000     -0.083333333333      0.000000000000
     -0.166666666667     -0.083333333333      0.000000000000
     -0.083333333333     -0.083333333333      0.000000000000
      0.000000000000      0.000000000000      0.166666666667
      0.083333333333      0.000000000000      0.166666666667
      0.166666666667      0.000000000000      0.166666666667
      0.250000000000      0.000000000000      0.166666666667
      0.333333333333     -0.000000000000      0.166666666667
      0.416666666667      0.000000000000      0.166666666667
      0.500000000000      0.000000000000      0.166666666667
     -0.416666666667     -0.000000000000      0.166666666667
     -0.333333333333      0.000000000000      0.166666666667
     -0.250000000000      0.000000000000      0.166666666667
     -0.166666666667     -0.000000000000      0.166666666667
     -0.083333333333      0.000000000000      0.166666666667
      0.000000000000      0.083333333333      0.166666666667
      0.083333333333      0.083333333333      0.166666666667
      0.166666666667      0.083333333333      0.166666666667
      0.250000000000      0.083333333333      0.166666666667
      0.333333333333      0.083333333333      0.166666666667
      0.416666666667      0.083333333333      0.166666666667
      0.500000000000      0.083333333333      0.166666666667
     -0.416666666667      0.083333333333      0.166666666667
     -0.333333333333      0.083333333333      0.166666666667
     -0.250000000000      0.083333333333      0.166666666667
     -0.166666666667      0.083333333333      0.166666666667
     -0.083333333333      0.083333333333      0.166666666667
      0.000000000000      0.166666666667      0.166666666667
      0.083333333333      0.166666666667      0.166666666667
      0.166666666667      0.166666666667      0.166666666667
      0.250000000000      0.166666666667      0.166666666667
      0.333333333333      0.166666666667      0.166666666667
      0.416666666667      0.166666666667      0.166666666667
      0.500000000000      0.166666666667      0.166666666667
     -0.416666666667      0.166666666667      0.166666666667
     -0.333333333333      0.166666666667      0.166666666667
     -0.250000000000      0.166666666667      0.166666666667
     -0.166666666667      0.166666666667      0.166666666667
     -0.083333333333      0.166666666667      0.166666666667
      0.000000000000      0.250000000000      0.166666666667
      0.083333333333      0.250000000000      0.166666666667
      0.166666666667      0.250000000000      0.166666666667
      0.250000000000      0.250000000000      0.166666666667
      0.333333333333      0.250000000000      0.166666666667
      0.416666666667      0.250000000000      0.166666666667
      0.500000000000      0.250000000000      0.166666666667
     -0.416666666667      0.250000000000      0.166666666667
     -0.333333333333      0.250000000000      0.166666666667
     -0.250000000000      0.250000000000      0.166666666667
     -0.166666666667      0.250000000000      0.166666666667
     -0.083333333333      0.250000000000      0.166666666667
     -0.000000000000      0.333333333333      0.166666666667
      0.083333333333      0.333333333333      0.166666666667
      0.166666666667      0.333333333333      0.166666666667
      0.250000000000      0.333333333333      0.166666666667
      0.333333333333      0.333333333333      0.166666666667
      0.416666666667      0.333333333333      0.166666666667
      0.500000000000      0.333333333333      0.166666666667
     -0.416666666667      0.333333333333      0.166666666667
     -0.333333333333      0.333333333333      0.166666666667
     -0.250000000000      0.333333333333      0.166666666667
     -0.166666666667      0.333333333333      0.166666666667
     -0.083333333333      0.333333333333      0.166666666667
      0.000000000000      0.416666666667      0.166666666667
      0.083333333333      0.416666666667      0.166666666667
      0.166666666667      0.416666666667      0.166666666667
      0.250000000000      0.416666666667      0.166666666667
      0.333333333333      0.416666666667      0.166666666667
      0.416666666667      0.416666666667      0.166666666667
      0.500000000000      0.416666666667      0.166666666667
     -0.416666666667      0.416666666667      0.166666666667
     -0.333333333333      0.416666666667      0.166666666667
     -0.250000000000      0.416666666667      0.166666666667
     -0.166666666667      0.416666666667      0.166666666667
     -0.083333333333      0.416666666667      0.166666666667
      0.000000000000      0.500000000000      0.166666666667
      0.083333333333      0.500000000000      0.166666666667
      0.166666666667      0.500000000000      0.166666666667
      0.250000000000      0.500000000000      0.166666666667
      0.333333333333      0.500000000000      0.166666666667
      0.416666666667      0.500000000000      0.166666666667
      0.500000000000      0.500000000000      0.166666666667
     -0.416666666667      0.500000000000      0.166666666667
     -0.333333333333      0.500000000000      0.166666666667
     -0.250000000000      0.500000000000      0.166666666667
     -0.166666666667      0.500000000000      0.166666666667
     -0.083333333333      0.500000000000      0.166666666667
     -0.000000000000     -0.416666666667      0.166666666667
      0.083333333333     -0.416666666667      0.166666666667
      0.166666666667     -0.416666666667      0.166666666667
      0.250000000000     -0.416666666667      0.166666666667
      0.333333333333     -0.416666666667      0.166666666667
      0.416666666667     -0.416666666667      0.166666666667
      0.500000000000     -0.416666666667      0.166666666667
     -0.416666666667     -0.416666666667      0.166666666667
     -0.333333333333     -0.416666666667      0.166666666667
     -0.250000000000     -0.416666666667      0.166666666667
     -0.166666666667     -0.416666666667      0.166666666667
     -0.083333333333     -0.416666666667      0.166666666667
      0.000000000000     -0.333333333333      0.166666666667
      0.083333333333     -0.333333333333      0.166666666667
      0.166666666667     -0.333333333333      0.166666666667
      0.250000000000     -0.333333333333      0.166666666667
      0.333333333333     -0.333333333333      0.166666666667
      0.416666666667     -0.333333333333      0.166666666667
      0.500000000000     -0.333333333333      0.166666666667
     -0.416666666667     -0.333333333333      0.166666666667
     -0.333333333333     -0.333333333333      0.166666666667
     -0.250000000000     -0.333333333333      0.166666666667
     -0.166666666667     -0.333333333333      0.166666666667
     -0.083333333333     -0.333333333333      0.166666666667
      0.000000000000     -0.250000000000      0.166666666667
      0.083333333333     -0.250000000000      0.166666666667
      0.166666666667     -0.250000000000      0.166666666667
      0.250000000000     -0.250000000000      0.166666666667
      0.333333333333     -0.250000000000      0.166666666667
      0.416666666667     -0.250000000000      0.166666666667
      0.500000000000     -0.250000000000      0.166666666667
     -0.416666666667     -0.250000000000      0.166666666667
     -0.333333333333     -0.250000000000      0.166666666667
     -0.250000000000     -0.250000000000      0.166666666667
     -0.166666666667     -0.250000000000      0.166666666667
     -0.083333333333     -0.250000000000      0.166666666667
     -0.000000000000     -0.166666666667      0.166666666667
      0.083333333333     -0.166666666667      0.166666666667
      0.166666666667     -0.166666666667      0.166666666667
      0.250000000000     -0.166666666667      0.166666666667
      0.333333333333     -0.166666666667      0.166666666667
      0.416666666667     -0.166666666667      0.166666666667
      0.500000000000     -0.166666666667      0.166666666667
     -0.416666666667     -0.166666666667      0.166666666667
     -0.333333333333     -0.166666666667      0.166666666667
     -0.250000000000     -0.166666666667      0.166666666667
     -0.166666666667     -0.166666666667      0.166666666667
     -0.083333333333     -0.166666666667      0.166666666667
      0.000000000000     -0.083333333333      0.166666666667
      0.083333333333     -0.083333333333      0.166666666667
      0.166666666667     -0.083333333333      0.166666666667
      0.250000000000     -0.083333333333      0.166666666667
      0.333333333333     -0.083333333333      0.166666666667
      0.416666666667     -0.083333333333      0.166666666667
      0.500000000000     -0.083333333333      0.166666666667
     -0.416666666667     -0.083333333333      0.166666666667
     -0.333333333333     -0.083333333333      0.166666666667
     -0.250000000000     -0.083333333333      0.166666666667
     -0.166666666667     -0.083333333333      0.166666666667
     -0.083333333333     -0.083333333333      0.166666666667
      0.000000000000      0.000000000000      0.333333333333
      0.083333333333      0.000000000000      0.333333333333
      0.166666666667      0.000000000000      0.333333333333
      0.250000000000      0.000000000000      0.333333333333
      0.333333333333     -0.000000000000      0.333333333333
      0.416666666667      0.000000000000      0.333333333333
      0.500000000000      0.000000000000      0.333333333333
     -0.416666666667     -0.000000000000      0.333333333333
     -0.333333333333      0.000000000000      0.333333333333
     -0.250000000000      0.000000000000      0.333333333333
     -0.166666666667     -0.000000000000      0.333333333333
     -0.083333333333      0.000000000000      0.333333333333
      0.000000000000      0.083333333333      0.333333333333
      0.083333333333      0.083333333333      0.333333333333
      0.166666666667      0.083333333333      0.333333333333
      0.250000000000      0.083333333333      0.333333333333
      0.333333333333      0.083333333333      0.333333333333
      0.416666666667      0.083333333333      0.333333333333
      0.500000000000      0.083333333333      0.333333333333
     -0.416666666667      0.083333333333      0.333333333333
     -0.333333333333      0.083333333333      0.333333333333
     -0.250000000000      0.083333333333      0.333333333333
     -0.166666666667      0.083333333333      0.333333333333
     -0.083333333333      0.083333333333      0.333333333333
      0.000000000000      0.166666666667      0.333333333333
      0.083333333333      0.166666666667      0.333333333333
      0.166666666667      0.166666666667      0.333333333333
      0.250000000000      0.166666666667      0.333333333333
      0.333333333333      0.166666666667      0.333333333333
      0.416666666667      0.166666666667      0.333333333333
      0.500000000000      0.166666666667      0.333333333333
     -0.416666666667      0.166666666667      0.333333333333
     -0.333333333333      0.166666666667      0.333333333333
     -0.250000000000      0.166666666667      0.333333333333
     -0.166666666667      0.166666666667      0.333333333333
     -0.083333333333      0.166666666667      0.333333333333
      0.000000000000      0.250000000000      0.333333333333
      0.083333333333      0.250000000000      0.333333333333
      0.166666666667      0.250000000000      0.333333333333
      0.250000000000      0.250000000000      0.333333333333
      0.333333333333      0.250000000000      0.333333333333
      0.416666666667      0.250000000000      0.333333333333
      0.500000000000      0.250000000000      0.333333333333
     -0.416666666667      0.250000000000      0.333333333333
     -0.333333333333      0.250000000000      0.333333333333
     -0.250000000000      0.250000000000      0.333333333333
     -0.166666666667      0.250000000000      0.333333333333
     -0.083333333333      0.250000000000      0.333333333333
     -0.000000000000      0.333333333333      0.333333333333
      0.083333333333      0.333333333333      0.333333333333
      0.166666666667      0.333333333333      0.333333333333
      0.250000000000      0.333333333333      0.333333333333
      0.333333333333      0.333333333333      0.333333333333
      0.416666666667      0.333333333333      0.333333333333
      0.500000000000      0.333333333333      0.333333333333
     -0.416666666667      0.333333333333      0.333333333333
     -0.333333333333      0.333333333333      0.333333333333
     -0.250000000000      0.333333333333      0.333333333333
     -0.166666666667      0.333333333333      0.333333333333
     -0.083333333333      0.333333333333      0.333333333333
      0.000000000000      0.416666666667      0.333333333333
      0.083333333333      0.416666666667      0.333333333333
      0.166666666667      0.416666666667      0.333333333333
      0.250000000000      0.416666666667      0.333333333333
      0.333333333333      0.416666666667      0.333333333333
      0.416666666667      0.416666666667      0.333333333333
      0.500000000000      0.416666666667      0.333333333333
     -0.416666666667      0.416666666667      0.333333333333
     -0.333333333333      0.416666666667      0.333333333333
     -0.250000000000      0.416666666667      0.333333333333
     -0.166666666667      0.416666666667      0.333333333333
     -0.083333333333      0.416666666667      0.333333333333
      0.000000000000      0.500000000000      0.333333333333
      0.083333333333      0.500000000000      0.333333333333
      0.166666666667      0.500000000000      0.333333333333
      0.250000000000      0.500000000000      0.333333333333
      0.333333333333      0.500000000000      0.333333333333
      0.416666666667      0.500000000000      0.333333333333
      0.500000000000      0.500000000000      0.333333333333
     -0.416666666667      0.500000000000      0.333333333333
     -0.333333333333      0.500000000000      0.333333333333
     -0.250000000000      0.500000000000      0.333333333333
     -0.166666666667      0.500000000000      0.333333333333
     -0.083333333333      0.500000000000      0.333333333333
     -0.000000000000     -0.416666666667      0.333333333333
      0.083333333333     -0.416666666667      0.333333333333
      0.166666666667     -0.416666666667      0.333333333333
      0.250000000000     -0.416666666667      0.333333333333
      0.333333333333     -0.416666666667      0.333333333333
      0.416666666667     -0.416666666667      0.333333333333
      0.500000000000     -0.416666666667      0.333333333333
     -0.416666666667     -0.416666666667      0.333333333333
     -0.333333333333     -0.416666666667      0.333333333333
     -0.250000000000     -0.416666666667      0.333333333333
     -0.166666666667     -0.416666666667      0.333333333333
     -0.083333333333     -0.416666666667      0.333333333333
      0.000000000000     -0.333333333333      0.333333333333
      0.083333333333     -0.333333333333      0.333333333333
      0.166666666667     -0.333333333333      0.333333333333
      0.250000000000     -0.333333333333      0.333333333333
      0.333333333333     -0.333333333333      0.333333333333
      0.416666666667     -0.333333333333      0.333333333333
      0.500000000000     -0.333333333333      0.333333333333
     -0.416666666667     -0.333333333333      0.333333333333
     -0.333333333333     -0.333333333333      0.333333333333
     -0.250000000000     -0.333333333333      0.333333333333
     -0.166666666667     -0.333333333333      0.333333333333
     -0.083333333333     -0.333333333333      0.333333333333
      0.000000000000     -0.250000000000      0.333333333333
      0.083333333333     -0.250000000000      0.333333333333
      0.166666666667     -0.250000000000      0.333333333333
      0.250000000000     -0.250000000000      0.333333333333
      0.333333333333     -0.250000000000      0.333333333333
      0.416666666667     -0.250000000000      0.333333333333
      0.500000000000     -0.250000000000      0.333333333333
     -0.416666666667     -0.250000000000      0.333333333333
     -0.333333333333     -0.250000000000      0.333333333333
     -0.250000000000     -0.250000000000      0.333333333333
     -0.166666666667     -0.250000000000      0.333333333333
     -0.083333333333     -0.250000000000      0.333333333333
     -0.000000000000     -0.166666666667      0.333333333333
      0.083333333333     -0.166666666667      0.333333333333
      0.166666666667     -0.166666666667      0.333333333333
      0.250000000000     -0.166666666667      0.333333333333
      0.333333333333     -0.166666666667      0.333333333333
      0.416666666667     -0.166666666667      0.333333333333
      0.500000000000     -0.166666666667      0.333333333333
     -0.416666666667     -0.166666666667      0.333333333333
     -0.333333333333     -0.166666666667      0.333333333333
     -0.250000000000     -0.166666666667      0.333333333333
     -0.166666666667     -0.166666666667      0.333333333333
     -0.083333333333     -0.166666666667      0.333333333333
      0.000000000000     -0.083333333333      0.333333333333
      0.083333333333     -0.083333333333      0.333333333333
      0.166666666667     -0.083333333333      0.333333333333
      0.250000000000     -0.083333333333      0.333333333333
      0.333333333333     -0.083333333333      0.333333333333
      0.416666666667     -0.083333333333      0.333333333333
      0.500000000000     -0.083333333333      0.333333333333
     -0.416666666667     -0.083333333333      0.333333333333
     -0.333333333333     -0.083333333333      0.333333333333
     -0.250000000000     -0.083333333333      0.333333333333
     -0.166666666667     -0.083333333333      0.333333333333
     -0.083333333333     -0.083333333333      0.333333333333
      0.000000000000      0.000000000000      0.500000000000
      0.083333333333      0.000000000000      0.500000000000
      0.166666666667      0.000000000000      0.500000000000
      0.250000000000      0.000000000000      0.500000000000
      0.333333333333     -0.000000000000      0.500000000000
      0.416666666667      0.000000000000      0.500000000000
      0.500000000000      0.000000000000      0.500000000000
     -0.416666666667     -0.000000000000      0.500000000000
     -0.333333333333      0.000000000000      0.500000000000
     -0.250000000000      0.000000000000      0.500000000000
     -0.166666666667     -0.000000000000      0.500000000000
     -0.083333333333      0.000000000000      0.500000000000
      0.000000000000      0.083333333333      0.500000000000
      0.083333333333      0.083333333333      0.500000000000
      0.166666666667      0.083333333333      0.500000000000
      0.250000000000      0.083333333333      0.500000000000
      0.333333333333      0.083333333333      0.500000000000
      0.416666666667      0.083333333333      0.500000000000
      0.500000000000      0.083333333333      0.500000000000
     -0.416666666667      0.083333333333      0.500000000000
     -0.333333333333      0.083333333333      0.500000000000
     -0.250000000000      0.083333333333      0.500000000000
     -0.166666666667      0.083333333333      0.500000000000
     -0.083333333333      0.083333333333      0.500000000000
      0.000000000000      0.166666666667      0.500000000000
      0.083333333333      0.166666666667      0.500000000000
      0.166666666667      0.166666666667      0.500000000000
      0.250000000000      0.166666666667      0.500000000000
      0.333333333333      0.166666666667      0.500000000000
      0.416666666667      0.166666666667      0.500000000000
      0.500000000000      0.166666666667      0.500000000000
     -0.416666666667      0.166666666667      0.500000000000
     -0.333333333333      0.166666666667      0.500000000000
     -0.250000000000      0.166666666667      0.500000000000
     -0.166666666667      0.166666666667      0.500000000000
     -0.083333333333      0.166666666667      0.500000000000
      0.000000000000      0.250000000000      0.500000000000
      0.083333333333      0.250000000000      0.500000000000
      0.166666666667      0.250000000000      0.500000000000