Bi2Se3
80
Line-mode
Reciprocal
0.0000 0.0000 0.0000 ! \Gamma
0.5000 0.5000 0.5000 ! Z

0.5000 0.5000 0.5000 ! Z
0.5000 0.5000 0.0000 ! F

0.5000 0.5000 0.0000 ! F
0.0000 0.0000 0.0000 ! \Gamma

0.0000 0.0000 0.0000 ! \Gamma
0.5000 0.0000 0.0000 ! L
